
-15.9
-15.5
-14.5
-13.3
-12.0
-10.7
-8.8
-8.0
-6.4
-5.4
-4.8
-4.4
-4.1
-3.7
-3.5
-3.5
-3.1
-3.0
-2.9
-2.9
-2.9
-2.9
-2.9
-2.9
-2.9
-2.9
-2.9
-2.9
-2.9
-2.9
-2.9
-2.9
-2.9
-15.3
-14.8
-14.4
-13.9
-12.1
-10.7
-9.5
-7.9
-6.7
-5.7
-5.1
-4.8
-4.1
-3.9
-3.7
-3.5
-3.3
-3.1
-3.0
-3.0
-2.9
-2.9
-2.9
-2.9
-2.9
-2.9
-2.9
-2.9
-2.9
-2.9
-2.9
-2.9
-2.9
-2.9
-2.9
-2.9
-2.9
-2.8
-16.1
-15.5
-14.7
-13.7
-11.8
-10.4
-8.5
-7.3
-6.0
-5.5
-4.7
-4.0
-3.6
-3.3
-3.1
-3.1
-3.0
-3.0
-3.0
-3.0
-3.0
-3.0
-3.0
-2.8
-2.8
-2.8
-2.8
-2.8
-2.8
-2.8
-2.8
-2.8
-2.8
-2.8
-2.8
-2.8
-2.8
-2.8
-2.8
-2.8
-2.8
-2.8
-2.8
-2.8